SDVRP instances/custom_instances/p02_1_split0.vrp
NAME:p02_1_split
BEST_KNOWN: 0
COMMENT: 0
DIMENSION: 417
CAPACITY: 140
EDGE_WEIGHT_FORMAT: FUNCTION
EDGE_WEIGHT_TYPE: EXACT_2D
NODE_COORD_SECTION
1 0.00000 0.00000
2 13 31
3 13 31
4 13 31
5 13 31
6 35 -44
7 46 -49
8 46 -49
9 46 -49
10 46 -49
11 46 -49
12 46 -49
13 46 -49
14 -37 34
15 -37 34
16 -37 34
17 -37 34
18 -37 34
19 -37 34
20 -37 34
21 8 -47
22 8 -47
23 8 -47
24 8 -47
25 8 -47
26 8 -47
27 8 -47
28 8 -47
29 8 -47
30 14 25
31 14 25
32 14 25
33 14 25
34 14 25
35 14 25
36 14 25
37 -2 48
38 -2 48
39 -2 48
40 -2 48
41 16 17
42 16 17
43 16 17
44 16 17
45 16 17
46 -6 -47
47 -6 -47
48 -20 -18
49 -20 -18
50 -20 -18
51 -20 -18
52 -20 -18
53 -20 -18
54 -20 -18
55 -22 31
56 -22 31
57 -22 31
58 -22 31
59 -22 31
60 -22 31
61 -22 31
62 -22 31
63 -22 31
64 41 15
65 41 15
66 41 15
67 -32 40
68 -32 40
69 -32 40
70 -32 40
71 -32 40
72 -32 40
73 -32 40
74 -32 40
75 -21 39
76 -21 39
77 -21 39
78 -21 39
79 -21 39
80 -21 39
81 -21 39
82 -21 39
83 7 12
84 7 12
85 7 12
86 7 12
87 45 -35
88 45 -35
89 45 -35
90 45 -35
91 45 -35
92 45 -35
93 45 -35
94 45 -35
95 -45 -19
96 -45 -19
97 -45 -19
98 -45 -19
99 -45 -19
100 -45 -19
101 -1 2
102 -1 2
103 -1 2
104 -1 2
105 -1 2
106 -1 2
107 -1 2
108 -2 46
109 -2 46
110 -2 46
111 -2 46
112 43 -41
113 43 -41
114 43 -41
115 43 -41
116 43 -41
117 43 -41
118 13 28
119 13 28
120 13 28
121 13 28
122 13 28
123 13 28
124 13 28
125 33 -16
126 33 -16
127 33 -16
128 33 -16
129 2 50
130 2 50
131 2 50
132 2 50
133 2 50
134 2 50
135 2 50
136 2 50
137 29 -31
138 32 49
139 32 49
140 -50 13
141 -50 13
142 -50 13
143 -50 13
144 -50 13
145 -50 13
146 -50 13
147 -35 -25
148 -35 -25
149 -35 -25
150 -35 -25
151 -35 -25
152 -35 -25
153 -1 -50
154 -1 -50
155 -1 -50
156 -1 -50
157 -1 -50
158 -1 -50
159 -1 -50
160 -1 -50
161 8 -46
162 8 -46
163 8 -46
164 8 -46
165 8 -46
166 8 -46
167 8 -46
168 8 -46
169 -36 -21
170 -36 -21
171 -36 -21
172 -26 -33
173 -26 -33
174 -26 -33
175 -26 -33
176 -26 -33
177 -26 -33
178 -26 -33
179 -1 22
180 -1 22
181 -1 22
182 -1 22
183 22 4
184 22 4
185 22 4
186 22 4
187 22 4
188 22 4
189 22 4
190 22 4
191 -21 17
192 -21 17
193 -21 17
194 -21 17
195 -21 17
196 -13 43
197 -13 43
198 -13 43
199 -13 43
200 1 39
201 1 39
202 1 39
203 1 39
204 -20 18
205 -20 18
206 -20 18
207 27 -45
208 27 -45
209 27 -45
210 27 -45
211 27 -45
212 27 -45
213 27 -45
214 27 -45
215 -4 30
216 -4 30
217 -4 30
218 -21 -14
219 -21 -14
220 -21 -14
221 -21 -14
222 -21 -14
223 -21 -14
224 -21 -14
225 -46 -13
226 -46 -13
227 -46 -13
228 -46 -13
229 -46 -13
230 -46 -13
231 -47 34
232 -47 34
233 -47 34
234 -42 -38
235 -42 -38
236 -42 -38
237 -42 -38
238 -42 -38
239 -14 -48
240 -14 -48
241 -14 -48
242 -14 -48
243 -4 -31
244 -4 -31
245 -4 -31
246 -4 -31
247 -4 -31
248 10 33
249 10 33
250 10 33
251 10 33
252 10 33
253 19 9
254 19 9
255 -43 -29
256 -43 -29
257 -43 -29
258 -43 -29
259 -43 -29
260 -43 -29
261 -43 -29
262 -37 -16
263 -37 -16
264 -37 -16
265 -37 -16
266 -37 -16
267 -37 -16
268 -37 -16
269 -37 -16
270 -1 35
271 -1 35
272 -1 35
273 -1 35
274 27 19
275 27 19
276 27 19
277 27 19
278 27 19
279 27 19
280 27 19
281 -39 -17
282 -39 -17
283 -39 -17
284 -39 -17
285 -39 -17
286 -39 -17
287 -39 -17
288 -10 26
289 -10 26
290 -10 26
291 -10 26
292 -10 26
293 -10 26
294 -10 26
295 -10 26
296 -8 -2
297 -8 -2
298 -8 -2
299 -8 -2
300 -8 -2
301 -8 -2
302 -8 -2
303 -8 -2
304 -12 -24
305 -12 -24
306 -12 -24
307 -12 -24
308 -1 -44
309 -1 -44
310 -1 -44
311 -1 -44
312 -17 13
313 -17 13
314 -17 13
315 -17 13
316 -17 13
317 -17 13
318 -17 13
319 47 -30
320 47 -30
321 47 -30
322 -4 16
323 -4 16
324 -4 16
325 -4 16
326 -4 16
327 -4 16
328 -4 16
329 13 36
330 13 36
331 13 36
332 13 36
333 13 36
334 13 36
335 13 30
336 13 30
337 13 30
338 13 30
339 13 30
340 13 30
341 13 30
342 13 30
343 13 30
344 -27 -27
345 -27 -27
346 -27 -27
347 -27 -27
348 -27 -27
349 -27 -27
350 -27 -27
351 -27 -27
352 -27 -27
353 45 -46
354 45 -46
355 45 -46
356 45 -46
357 45 -46
358 45 -46
359 45 -46
360 45 -46
361 23 15
362 23 15
363 23 15
364 23 15
365 23 15
366 23 15
367 -1 -49
368 -1 -49
369 -1 -49
370 -1 -49
371 17 18
372 17 18
373 43 -40
374 43 -40
375 43 -40
376 14 32
377 14 32
378 14 32
379 14 32
380 14 32
381 8 35
382 8 35
383 8 35
384 -10 -28
385 -10 -28
386 -10 -28
387 -10 -28
388 -10 -28
389 -10 -28
390 -10 -28
391 43 34
392 43 34
393 43 34
394 43 34
395 43 34
396 43 34
397 43 34
398 -12 -23
399 -12 -23
400 -12 -23
401 -12 -23
402 -12 -23
403 -12 -23
404 -12 -23
405 -8 17
406 -8 17
407 -8 17
408 -8 17
409 -8 17
410 -8 17
411 25 -43
412 25 -43
413 25 -43
414 25 -43
415 41 23
416 41 23
417 41 23
DEMAND_SECTION
1 0
2 14
3 7
4 1
5 1
6 28
7 28
8 7
9 1
10 1
11 1
12 1
13 1
14 14
15 1
16 1
17 1
18 1
19 1
20 1
21 28
22 14
23 7
24 1
25 1
26 1
27 1
28 1
29 1
30 28
31 14
32 1
33 1
34 1
35 1
36 1
37 14
38 7
39 1
40 1
41 14
42 7
43 1
44 1
45 1
46 28
47 7
48 28
49 14
50 1
51 1
52 1
53 1
54 1
55 28
56 14
57 7
58 1
59 1
60 1
61 1
62 1
63 1
64 28
65 14
66 7
67 28
68 28
69 7
70 1
71 1
72 1
73 1
74 1
75 14
76 7
77 1
78 1
79 1
80 1
81 1
82 1
83 28
84 28
85 7
86 1
87 28
88 14
89 7
90 1
91 1
92 1
93 1
94 1
95 28
96 28
97 7
98 1
99 1
100 1
101 28
102 28
103 7
104 1
105 1
106 1
107 1
108 28
109 28
110 7
111 1
112 28
113 28
114 1
115 1
116 1
117 1
118 28
119 7
120 1
121 1
122 1
123 1
124 1
125 28
126 28
127 7
128 1
129 28
130 14
131 7
132 1
133 1
134 1
135 1
136 1
137 28
138 14
139 7
140 14
141 7
142 1
143 1
144 1
145 1
146 1
147 28
148 14
149 7
150 1
151 1
152 1
153 28
154 7
155 1
156 1
157 1
158 1
159 1
160 1
161 28
162 14
163 7
164 1
165 1
166 1
167 1
168 1
169 28
170 28
171 14
172 28
173 14
174 1
175 1
176 1
177 1
178 1
179 28
180 28
181 7
182 1
183 14
184 7
185 1
186 1
187 1
188 1
189 1
190 1
191 28
192 28
193 7
194 1
195 1
196 28
197 28
198 7
199 1
200 28
201 14
202 7
203 1
204 28
205 28
206 14
207 28
208 14
209 7
210 1
211 1
212 1
213 1
214 1
215 28
216 14
217 1
218 14
219 1
220 1
221 1
222 1
223 1
224 1
225 28
226 14
227 7
228 1
229 1
230 1
231 28
232 7
233 1
234 28
235 1
236 1
237 1
238 1
239 28
240 7
241 1
242 1
243 14
244 1
245 1
246 1
247 1
248 28
249 1
250 1
251 1
252 1
253 14
254 7
255 28
256 7
257 1
258 1
259 1
260 1
261 1
262 28
263 14
264 1
265 1
266 1
267 1
268 1
269 1
270 28
271 28
272 7
273 1
274 28
275 28
276 7
277 1
278 1
279 1
280 1
281 14
282 7
283 1
284 1
285 1
286 1
287 1
288 28
289 14
290 7
291 1
292 1
293 1
294 1
295 1
296 28
297 14
298 7
299 1
300 1
301 1
302 1
303 1
304 28
305 1
306 1
307 1
308 28
309 28
310 7
311 1
312 28
313 14
314 1
315 1
316 1
317 1
318 1
319 14
320 7
321 1
322 28
323 14
324 1
325 1
326 1
327 1
328 1
329 28
330 28
331 7
332 1
333 1
334 1
335 28
336 28
337 7
338 1
339 1
340 1
341 1
342 1
343 1
344 28
345 28
346 7
347 1
348 1
349 1
350 1
351 1
352 1
353 28
354 7
355 1
356 1
357 1
358 1
359 1
360 1
361 28
362 7
363 1
364 1
365 1
366 1
367 28
368 14
369 7
370 1
371 28
372 1
373 28
374 28
375 1
376 28
377 28
378 7
379 1
380 1
381 28
382 7
383 1
384 14
385 1
386 1
387 1
388 1
389 1
390 1
391 28
392 14
393 7
394 1
395 1
396 1
397 1
398 28
399 14
400 1
401 1
402 1
403 1
404 1
405 28
406 28
407 1
408 1
409 1
410 1
411 28
412 1
413 1
414 1
415 28
416 14
417 1
DEPOT_SECTION
1
-1
EOF