SDVRP instances/custom_instances/p02_1_split0.sol
416 -4 1 3 2 377 375 378 376 379 338 335 336 342 121 120 118 123 -34 35 138 137 396 390 394 391 392 395 393 414 416 415 364 362 252 -40 43 41 42 44 275 277 278 276 273 279 274 363 365 361 360 253 -58 60 62 59 57 61 55 54 56 15 13 19 16 17 18 14 232 231 230 143 141 139 140 144 142 145 -74 78 80 76 77 75 81 79 71 73 70 68 67 69 66 72 205 203 -82 84 85 83 180 181 179 178 -100 102 105 104 106 101 103 -111 112 114 356 354 359 353 355 357 358 352 8 9 12 11 7 10 6 412 -115 113 116 373 374 372 88 90 86 87 93 91 89 92 319 318 320 -124 125 126 127 65 63 64 182 183 185 189 188 186 184 187 -136 5 206 211 210 213 209 208 207 212 411 413 410 -162 163 165 161 160 167 166 164 27 21 23 26 20 22 24 25 28 308 -168 169 170 282 285 280 286 281 284 283 264 265 261 267 266 268 -176 175 171 173 177 174 172 346 343 344 349 345 348 347 350 351 217 218 222 221 219 220 223 -198 197 196 195 37 36 38 39 109 108 216 215 -201 200 202 199 132 128 130 134 131 133 135 129 110 107 271 -204 190 192 193 191 194 311 312 313 316 315 314 317 -237 234 235 236 233 257 256 258 260 254 255 259 151 149 150 146 148 147 299 296 -244 154 152 157 159 155 153 156 158 367 369 366 368 309 307 310 -246 243 245 242 46 45 240 241 238 239 386 383 388 387 389 384 385 303 305 306 304 -248 250 247 249 251 331 328 332 333 329 330 380 381 382 -263 262 95 94 98 99 96 97 225 229 226 224 227 228 302 298 301 -269 270 272 214 293 289 292 294 287 288 290 291 -295 297 300 51 48 49 50 53 52 47 397 398 399 403 400 402 401 -321 325 327 326 324 323 322 405 404 406 409 407 408 -334 341 337 340 339 119 117 122 32 30 33 31 29 370 371 0 





OBJ=
2366.752
BEST_KNOWN=
0.000